w = 48;
w_holy = [3,3,3,2,2,2,2,3,2,2,2,2,2,2,2,2,2,3,2,2,2,2,2,2,2,2,2,2,3,2,2,2,2,2,3,2,4,3,2,2,2,2,2,2,2,2,2,2];
p = 9;
p_done = [5,5,5,6,6,12,7,6,8];
p_vaca = [{2},{},{10,11,12},{2,10},{},{2,3},{2,3,15,16},{},{8,19}];
p_volu = [{},{},{2},{},{1},{},{},{},{1}];
wrest = 3;
wsmin = 3;
